NAME 
OBJSENSE MAX
ROWS
 N  OBJ
 L  packing[0]
 L  packing[1]
 L  packing[2]
 L  packing[3]
 L  packing[4]
 L  packing[5]
 L  packing[6]
 L  packing[7]
 L  packing[8]
 L  packing[9]
 L  packing[10]
 L  packing[11]
 L  packing[12]
 L  packing[13]
 L  packing[14]
 L  packing[15]
 L  packing[16]
 L  packing[17]
 L  packing[18]
 L  packing[19]
 L  packing[20]
 L  packing[21]
 L  packing[22]
 L  packing[23]
 L  packing[24]
 L  packing[25]
 L  packing[26]
 L  packing[27]
 L  packing[28]
 L  packing[29]
 L  packing[30]
 L  packing[31]
 L  packing[32]
 L  packing[33]
 L  packing[34]
 L  packing[35]
 L  packing[36]
 L  packing[37]
 L  packing[38]
 L  packing[39]
 L  packing[40]
 L  packing[41]
 L  packing[42]
 L  packing[43]
 L  packing[44]
 L  packing[45]
 L  packing[46]
 L  packing[47]
 L  packing[48]
 L  packing[49]
 L  R54     
COLUMNS
    MARKER    'MARKER'                 'INTORG'
    x[1]      OBJ       23
    x[1]      packing[0]  77
    x[1]      packing[1]  125
    x[1]      packing[3]  59
    x[1]      packing[4]  50
    x[1]      packing[5]  28
    x[1]      packing[6]  123
    x[1]      packing[7]  83
    x[1]      packing[8]  191
    x[1]      packing[9]  22
    x[1]      packing[11]  178
    x[1]      packing[12]  171
    x[1]      packing[13]  42
    x[1]      packing[15]  42
    x[1]      packing[17]  9
    x[1]      packing[18]  34
    x[1]      packing[19]  42
    x[1]      packing[20]  179
    x[1]      packing[22]  183
    x[1]      packing[23]  129
    x[1]      packing[25]  180
    x[1]      packing[27]  172
    x[1]      packing[28]  97
    x[1]      packing[30]  98
    x[1]      packing[31]  58
    x[1]      packing[32]  33
    x[1]      packing[34]  149
    x[1]      packing[35]  14
    x[1]      packing[36]  19
    x[1]      packing[37]  93
    x[1]      packing[38]  57
    x[1]      packing[39]  79
    x[1]      packing[41]  13
    x[1]      packing[42]  151
    x[1]      packing[44]  83
    x[1]      packing[45]  29
    x[1]      packing[49]  197
    x[2]      OBJ       26
    x[2]      packing[0]  182
    x[2]      packing[1]  182
    x[2]      packing[2]  166
    x[2]      packing[4]  14
    x[2]      packing[5]  149
    x[2]      packing[6]  136
    x[2]      packing[7]  45
    x[2]      packing[8]  128
    x[2]      packing[9]  74
    x[2]      packing[10]  108
    x[2]      packing[12]  26
    x[2]      packing[13]  7
    x[2]      packing[14]  50
    x[2]      packing[15]  144
    x[2]      packing[17]  5
    x[2]      packing[18]  186
    x[2]      packing[21]  36
    x[2]      packing[22]  156
    x[2]      packing[24]  191
    x[2]      packing[26]  171
    x[2]      packing[27]  65
    x[2]      packing[28]  29
    x[2]      packing[30]  78
    x[2]      packing[32]  194
    x[2]      packing[33]  109
    x[2]      packing[34]  184
    x[2]      packing[35]  198
    x[2]      packing[36]  166
    x[2]      packing[37]  189
    x[2]      packing[40]  97
    x[2]      packing[41]  185
    x[2]      packing[42]  27
    x[2]      packing[43]  13
    x[2]      packing[44]  156
    x[2]      packing[45]  46
    x[2]      packing[46]  114
    x[2]      packing[47]  5
    x[2]      packing[48]  71
    x[2]      packing[49]  100
    x[3]      OBJ       120
    x[3]      packing[1]  88
    x[3]      packing[4]  79
    x[3]      packing[5]  132
    x[3]      packing[6]  19
    x[3]      packing[9]  46
    x[3]      packing[10]  175
    x[3]      packing[11]  69
    x[3]      packing[12]  2
    x[3]      packing[13]  41
    x[3]      packing[14]  99
    x[3]      packing[15]  86
    x[3]      packing[16]  176
    x[3]      packing[17]  68
    x[3]      packing[18]  99
    x[3]      packing[20]  41
    x[3]      packing[21]  73
    x[3]      packing[22]  38
    x[3]      packing[23]  113
    x[3]      packing[24]  11
    x[3]      packing[25]  142
    x[3]      packing[28]  195
    x[3]      packing[29]  65
    x[3]      packing[31]  14
    x[3]      packing[32]  145
    x[3]      packing[34]  42
    x[3]      packing[35]  62
    x[3]      packing[37]  4
    x[3]      packing[38]  143
    x[3]      packing[39]  177
    x[3]      packing[41]  35
    x[3]      packing[42]  122
    x[3]      packing[43]  118
    x[3]      packing[44]  102
    x[3]      packing[45]  149
    x[3]      packing[46]  16
    x[3]      packing[47]  93
    x[3]      packing[48]  172
    x[3]      packing[49]  120
    x[3]      R54       1
    x[4]      OBJ       109
    x[4]      packing[0]  127
    x[4]      packing[1]  17
    x[4]      packing[2]  185
    x[4]      packing[5]  159
    x[4]      packing[6]  94
    x[4]      packing[7]  90
    x[4]      packing[9]  63
    x[4]      packing[11]  102
    x[4]      packing[12]  136
    x[4]      packing[13]  148
    x[4]      packing[14]  79
    x[4]      packing[15]  171
    x[4]      packing[17]  114
    x[4]      packing[18]  49
    x[4]      packing[19]  152
    x[4]      packing[20]  154
    x[4]      packing[21]  81
    x[4]      packing[22]  64
    x[4]      packing[23]  143
    x[4]      packing[24]  73
    x[4]      packing[26]  95
    x[4]      packing[29]  65
    x[4]      packing[30]  157
    x[4]      packing[31]  105
    x[4]      packing[32]  22
    x[4]      packing[34]  7
    x[4]      packing[36]  118
    x[4]      packing[37]  150
    x[4]      packing[39]  129
    x[4]      packing[41]  184
    x[4]      packing[42]  189
    x[4]      packing[43]  49
    x[4]      packing[44]  15
    x[4]      packing[45]  94
    x[4]      packing[46]  193
    x[4]      packing[47]  85
    x[4]      packing[48]  63
    x[4]      packing[49]  8
    x[5]      OBJ       184
    x[5]      packing[0]  82
    x[5]      packing[1]  1
    x[5]      packing[3]  20
    x[5]      packing[5]  78
    x[5]      packing[6]  68
    x[5]      packing[7]  97
    x[5]      packing[8]  165
    x[5]      packing[11]  160
    x[5]      packing[12]  80
    x[5]      packing[16]  74
    x[5]      packing[18]  138
    x[5]      packing[19]  16
    x[5]      packing[21]  157
    x[5]      packing[22]  168
    x[5]      packing[26]  80
    x[5]      packing[27]  109
    x[5]      packing[28]  161
    x[5]      packing[29]  63
    x[5]      packing[30]  51
    x[5]      packing[31]  131
    x[5]      packing[32]  39
    x[5]      packing[33]  51
    x[5]      packing[35]  17
    x[5]      packing[36]  41
    x[5]      packing[37]  68
    x[5]      packing[38]  9
    x[5]      packing[39]  192
    x[5]      packing[40]  114
    x[5]      packing[41]  81
    x[5]      packing[42]  81
    x[5]      packing[43]  46
    x[5]      packing[44]  47
    x[5]      packing[45]  199
    x[5]      packing[46]  4
    x[5]      packing[47]  170
    x[5]      packing[48]  117
    x[5]      packing[49]  117
    x[5]      R54       1
    x[6]      OBJ       38
    x[6]      packing[0]  4
    x[6]      packing[1]  183
    x[6]      packing[2]  40
    x[6]      packing[3]  120
    x[6]      packing[4]  199
    x[6]      packing[5]  87
    x[6]      packing[6]  137
    x[6]      packing[7]  190
    x[6]      packing[9]  84
    x[6]      packing[13]  133
    x[6]      packing[14]  179
    x[6]      packing[15]  169
    x[6]      packing[16]  84
    x[6]      packing[17]  134
    x[6]      packing[18]  78
    x[6]      packing[19]  127
    x[6]      packing[20]  112
    x[6]      packing[21]  147
    x[6]      packing[22]  129
    x[6]      packing[23]  27
    x[6]      packing[24]  33
    x[6]      packing[25]  138
    x[6]      packing[26]  110
    x[6]      packing[28]  58
    x[6]      packing[29]  121
    x[6]      packing[30]  87
    x[6]      packing[31]  36
    x[6]      packing[32]  186
    x[6]      packing[34]  130
    x[6]      packing[35]  133
    x[6]      packing[36]  53
    x[6]      packing[37]  67
    x[6]      packing[38]  43
    x[6]      packing[39]  135
    x[6]      packing[40]  175
    x[6]      packing[41]  114
    x[6]      packing[43]  13
    x[6]      packing[44]  151
    x[6]      packing[45]  151
    x[6]      packing[46]  41
    x[6]      packing[48]  34
    x[6]      packing[49]  41
    x[7]      OBJ       142
    x[7]      packing[0]  126
    x[7]      packing[3]  88
    x[7]      packing[6]  36
    x[7]      packing[7]  191
    x[7]      packing[9]  40
    x[7]      packing[10]  193
    x[7]      packing[11]  30
    x[7]      packing[12]  87
    x[7]      packing[14]  43
    x[7]      packing[16]  30
    x[7]      packing[17]  53
    x[7]      packing[18]  59
    x[7]      packing[19]  71
    x[7]      packing[20]  161
    x[7]      packing[21]  38
    x[7]      packing[22]  41
    x[7]      packing[23]  62
    x[7]      packing[28]  169
    x[7]      packing[29]  46
    x[7]      packing[30]  104
    x[7]      packing[31]  8
    x[7]      packing[32]  145
    x[7]      packing[33]  62
    x[7]      packing[34]  112
    x[7]      packing[35]  159
    x[7]      packing[37]  66
    x[7]      packing[38]  142
    x[7]      packing[39]  128
    x[7]      packing[40]  21
    x[7]      packing[41]  166
    x[7]      packing[42]  87
    x[7]      packing[44]  14
    x[7]      packing[45]  135
    x[7]      packing[47]  77
    x[7]      packing[48]  53
    x[7]      packing[49]  161
    x[7]      R54       1
    x[8]      OBJ       101
    x[8]      packing[1]  16
    x[8]      packing[2]  38
    x[8]      packing[3]  40
    x[8]      packing[4]  105
    x[8]      packing[6]  187
    x[8]      packing[7]  99
    x[8]      packing[8]  123
    x[8]      packing[9]  192
    x[8]      packing[10]  35
    x[8]      packing[12]  9
    x[8]      packing[13]  17
    x[8]      packing[14]  135
    x[8]      packing[15]  70
    x[8]      packing[16]  28
    x[8]      packing[17]  143
    x[8]      packing[18]  190
    x[8]      packing[19]  143
    x[8]      packing[20]  7
    x[8]      packing[21]  176
    x[8]      packing[23]  90
    x[8]      packing[24]  185
    x[8]      packing[25]  49
    x[8]      packing[26]  66
    x[8]      packing[27]  149
    x[8]      packing[30]  74
    x[8]      packing[31]  191
    x[8]      packing[32]  53
    x[8]      packing[33]  175
    x[8]      packing[34]  107
    x[8]      packing[35]  120
    x[8]      packing[36]  112
    x[8]      packing[37]  16
    x[8]      packing[38]  29
    x[8]      packing[39]  157
    x[8]      packing[40]  93
    x[8]      packing[41]  88
    x[8]      packing[42]  52
    x[8]      packing[43]  10
    x[8]      packing[45]  103
    x[8]      packing[47]  129
    x[8]      packing[48]  117
    x[8]      packing[49]  155
    x[9]      OBJ       90
    x[9]      packing[0]  33
    x[9]      packing[1]  141
    x[9]      packing[2]  133
    x[9]      packing[3]  85
    x[9]      packing[4]  154
    x[9]      packing[7]  69
    x[9]      packing[8]  104
    x[9]      packing[9]  24
    x[9]      packing[11]  116
    x[9]      packing[12]  55
    x[9]      packing[13]  163
    x[9]      packing[16]  41
    x[9]      packing[17]  23
    x[9]      packing[18]  59
    x[9]      packing[19]  30
    x[9]      packing[20]  161
    x[9]      packing[21]  2
    x[9]      packing[22]  66
    x[9]      packing[23]  185
    x[9]      packing[26]  140
    x[9]      packing[27]  128
    x[9]      packing[28]  192
    x[9]      packing[29]  187
    x[9]      packing[30]  96
    x[9]      packing[31]  164
    x[9]      packing[33]  5
    x[9]      packing[35]  130
    x[9]      packing[36]  182
    x[9]      packing[37]  1
    x[9]      packing[38]  121
    x[9]      packing[39]  122
    x[9]      packing[40]  166
    x[9]      packing[41]  60
    x[9]      packing[43]  99
    x[9]      packing[47]  52
    x[9]      packing[48]  147
    x[9]      packing[49]  129
    x[10]     OBJ       120
    x[10]     packing[0]  155
    x[10]     packing[1]  199
    x[10]     packing[2]  199
    x[10]     packing[3]  179
    x[10]     packing[5]  60
    x[10]     packing[6]  149
    x[10]     packing[7]  171
    x[10]     packing[8]  100
    x[10]     packing[9]  3
    x[10]     packing[10]  101
    x[10]     packing[11]  77
    x[10]     packing[12]  34
    x[10]     packing[13]  89
    x[10]     packing[14]  187
    x[10]     packing[15]  181
    x[10]     packing[16]  64
    x[10]     packing[18]  77
    x[10]     packing[19]  50
    x[10]     packing[20]  135
    x[10]     packing[21]  124
    x[10]     packing[22]  34
    x[10]     packing[23]  114
    x[10]     packing[29]  102
    x[10]     packing[30]  67
    x[10]     packing[31]  2
    x[10]     packing[33]  63
    x[10]     packing[34]  34
    x[10]     packing[35]  84
    x[10]     packing[36]  133
    x[10]     packing[37]  66
    x[10]     packing[38]  177
    x[10]     packing[39]  10
    x[10]     packing[40]  78
    x[10]     packing[41]  178
    x[10]     packing[42]  184
    x[10]     packing[43]  103
    x[10]     packing[45]  194
    x[10]     packing[46]  154
    x[10]     packing[47]  92
    x[10]     packing[48]  3
    x[10]     packing[49]  193
    x[11]     OBJ       22
    x[11]     packing[0]  195
    x[11]     packing[1]  4
    x[11]     packing[2]  109
    x[11]     packing[3]  128
    x[11]     packing[4]  154
    x[11]     packing[6]  139
    x[11]     packing[8]  67
    x[11]     packing[11]  63
    x[11]     packing[13]  9
    x[11]     packing[14]  8
    x[11]     packing[15]  29
    x[11]     packing[16]  145
    x[11]     packing[17]  165
    x[11]     packing[18]  197
    x[11]     packing[19]  136
    x[11]     packing[21]  101
    x[11]     packing[22]  175
    x[11]     packing[23]  107
    x[11]     packing[24]  178
    x[11]     packing[25]  116
    x[11]     packing[27]  134
    x[11]     packing[28]  188
    x[11]     packing[29]  79
    x[11]     packing[30]  150
    x[11]     packing[31]  143
    x[11]     packing[33]  165
    x[11]     packing[34]  194
    x[11]     packing[35]  175
    x[11]     packing[37]  54
    x[11]     packing[38]  65
    x[11]     packing[39]  178
    x[11]     packing[40]  173
    x[11]     packing[41]  143
    x[11]     packing[42]  16
    x[11]     packing[45]  160
    x[11]     packing[46]  119
    x[11]     packing[47]  159
    x[11]     packing[48]  69
    x[11]     packing[49]  113
    x[12]     OBJ       106
    x[12]     packing[0]  85
    x[12]     packing[2]  4
    x[12]     packing[3]  119
    x[12]     packing[4]  30
    x[12]     packing[5]  35
    x[12]     packing[6]  40
    x[12]     packing[7]  192
    x[12]     packing[8]  135
    x[12]     packing[9]  115
    x[12]     packing[10]  20
    x[12]     packing[11]  197
    x[12]     packing[12]  4
    x[12]     packing[13]  26
    x[12]     packing[14]  122
    x[12]     packing[15]  95
    x[12]     packing[16]  139
    x[12]     packing[17]  108
    x[12]     packing[18]  187
    x[12]     packing[19]  88
    x[12]     packing[20]  36
    x[12]     packing[22]  35
    x[12]     packing[23]  133
    x[12]     packing[25]  130
    x[12]     packing[26]  170
    x[12]     packing[27]  108
    x[12]     packing[29]  29
    x[12]     packing[30]  156
    x[12]     packing[31]  123
    x[12]     packing[32]  92
    x[12]     packing[34]  34
    x[12]     packing[35]  23
    x[12]     packing[36]  194
    x[12]     packing[38]  175
    x[12]     packing[39]  40
    x[12]     packing[40]  80
    x[12]     packing[41]  141
    x[12]     packing[42]  67
    x[12]     packing[44]  28
    x[12]     packing[45]  41
    x[12]     packing[47]  80
    x[12]     packing[48]  146
    x[12]     packing[49]  142
    x[13]     OBJ       82
    x[13]     packing[0]  19
    x[13]     packing[2]  96
    x[13]     packing[4]  148
    x[13]     packing[6]  89
    x[13]     packing[8]  113
    x[13]     packing[9]  76
    x[13]     packing[10]  86
    x[13]     packing[11]  103
    x[13]     packing[12]  149
    x[13]     packing[13]  57
    x[13]     packing[14]  195
    x[13]     packing[15]  72
    x[13]     packing[17]  196
    x[13]     packing[18]  62
    x[13]     packing[20]  139
    x[13]     packing[22]  182
    x[13]     packing[23]  164
    x[13]     packing[24]  157
    x[13]     packing[25]  105
    x[13]     packing[27]  68
    x[13]     packing[28]  44
    x[13]     packing[29]  74
    x[13]     packing[30]  157
    x[13]     packing[31]  97
    x[13]     packing[32]  110
    x[13]     packing[34]  177
    x[13]     packing[35]  28
    x[13]     packing[36]  92
    x[13]     packing[37]  10
    x[13]     packing[38]  43
    x[13]     packing[40]  184
    x[13]     packing[41]  119
    x[13]     packing[42]  16
    x[13]     packing[43]  175
    x[13]     packing[44]  26
    x[13]     packing[45]  179
    x[13]     packing[46]  165
    x[13]     packing[47]  54
    x[13]     packing[48]  183
    x[13]     packing[49]  149
    x[14]     OBJ       133
    x[14]     packing[0]  173
    x[14]     packing[4]  99
    x[14]     packing[6]  43
    x[14]     packing[7]  24
    x[14]     packing[8]  88
    x[14]     packing[11]  78
    x[14]     packing[12]  123
    x[14]     packing[13]  45
    x[14]     packing[14]  20
    x[14]     packing[15]  22
    x[14]     packing[16]  166
    x[14]     packing[17]  87
    x[14]     packing[18]  176
    x[14]     packing[19]  187
    x[14]     packing[20]  132
    x[14]     packing[21]  13
    x[14]     packing[22]  58
    x[14]     packing[23]  72
    x[14]     packing[24]  37
    x[14]     packing[25]  54
    x[14]     packing[27]  148
    x[14]     packing[28]  189
    x[14]     packing[29]  58
    x[14]     packing[31]  111
    x[14]     packing[32]  60
    x[14]     packing[33]  2
    x[14]     packing[34]  95
    x[14]     packing[35]  28
    x[14]     packing[36]  20
    x[14]     packing[38]  126
    x[14]     packing[39]  35
    x[14]     packing[40]  178
    x[14]     packing[42]  19
    x[14]     packing[43]  141
    x[14]     packing[46]  184
    x[14]     packing[48]  54
    x[14]     R54       1
    x[15]     OBJ       51
    x[15]     packing[0]  14
    x[15]     packing[1]  106
    x[15]     packing[2]  156
    x[15]     packing[3]  174
    x[15]     packing[4]  96
    x[15]     packing[6]  48
    x[15]     packing[9]  48
    x[15]     packing[10]  149
    x[15]     packing[11]  95
    x[15]     packing[12]  177
    x[15]     packing[13]  3
    x[15]     packing[14]  7
    x[15]     packing[16]  46
    x[15]     packing[17]  40
    x[15]     packing[18]  61
    x[15]     packing[19]  5
    x[15]     packing[22]  86
    x[15]     packing[24]  39
    x[15]     packing[25]  147
    x[15]     packing[27]  126
    x[15]     packing[28]  1
    x[15]     packing[29]  177
    x[15]     packing[30]  6
    x[15]     packing[32]  178
    x[15]     packing[33]  89
    x[15]     packing[34]  53
    x[15]     packing[35]  40
    x[15]     packing[36]  174
    x[15]     packing[37]  13
    x[15]     packing[38]  8
    x[15]     packing[40]  37
    x[15]     packing[41]  47
    x[15]     packing[42]  157
    x[15]     packing[44]  193
    x[15]     packing[45]  164
    x[15]     packing[46]  133
    x[15]     packing[47]  100
    x[15]     packing[48]  103
    x[16]     OBJ       26
    x[16]     packing[0]  141
    x[16]     packing[1]  99
    x[16]     packing[2]  40
    x[16]     packing[3]  89
    x[16]     packing[5]  17
    x[16]     packing[7]  49
    x[16]     packing[8]  93
    x[16]     packing[9]  149
    x[16]     packing[10]  86
    x[16]     packing[11]  159
    x[16]     packing[13]  91
    x[16]     packing[14]  164
    x[16]     packing[15]  5
    x[16]     packing[16]  147
    x[16]     packing[17]  117
    x[16]     packing[19]  110
    x[16]     packing[21]  177
    x[16]     packing[22]  186
    x[16]     packing[23]  113
    x[16]     packing[24]  52
    x[16]     packing[26]  115
    x[16]     packing[27]  36
    x[16]     packing[28]  135
    x[16]     packing[29]  130
    x[16]     packing[30]  18
    x[16]     packing[32]  28
    x[16]     packing[33]  54
    x[16]     packing[35]  154
    x[16]     packing[36]  152
    x[16]     packing[38]  125
    x[16]     packing[39]  96
    x[16]     packing[40]  182
    x[16]     packing[41]  39
    x[16]     packing[43]  80
    x[16]     packing[45]  20
    x[16]     packing[47]  94
    x[16]     packing[48]  91
    x[16]     packing[49]  179
    x[17]     OBJ       61
    x[17]     packing[0]  188
    x[17]     packing[1]  91
    x[17]     packing[2]  160
    x[17]     packing[3]  175
    x[17]     packing[4]  84
    x[17]     packing[5]  97
    x[17]     packing[6]  88
    x[17]     packing[7]  135
    x[17]     packing[8]  161
    x[17]     packing[9]  173
    x[17]     packing[10]  177
    x[17]     packing[11]  18
    x[17]     packing[12]  42
    x[17]     packing[13]  104
    x[17]     packing[14]  64
    x[17]     packing[15]  61
    x[17]     packing[16]  134
    x[17]     packing[18]  126
    x[17]     packing[19]  18
    x[17]     packing[21]  95
    x[17]     packing[24]  46
    x[17]     packing[25]  10
    x[17]     packing[26]  140
    x[17]     packing[27]  52
    x[17]     packing[28]  148
    x[17]     packing[30]  28
    x[17]     packing[33]  75
    x[17]     packing[34]  138
    x[17]     packing[35]  162
    x[17]     packing[36]  9
    x[17]     packing[38]  68
    x[17]     packing[39]  152
    x[17]     packing[40]  28
    x[17]     packing[41]  60
    x[17]     packing[42]  3
    x[17]     packing[43]  40
    x[17]     packing[44]  26
    x[17]     packing[45]  12
    x[17]     packing[46]  69
    x[17]     packing[47]  164
    x[17]     packing[48]  103
    x[17]     packing[49]  163
    x[18]     OBJ       200
    x[18]     packing[0]  79
    x[18]     packing[3]  49
    x[18]     packing[4]  42
    x[18]     packing[6]  129
    x[18]     packing[7]  61
    x[18]     packing[8]  63
    x[18]     packing[12]  88
    x[18]     packing[14]  128
    x[18]     packing[15]  73
    x[18]     packing[16]  131
    x[18]     packing[17]  68
    x[18]     packing[18]  114
    x[18]     packing[20]  89
    x[18]     packing[22]  199
    x[18]     packing[23]  120
    x[18]     packing[25]  66
    x[18]     packing[26]  115
    x[18]     packing[27]  60
    x[18]     packing[28]  187
    x[18]     packing[29]  167
    x[18]     packing[30]  126
    x[18]     packing[31]  186
    x[18]     packing[32]  58
    x[18]     packing[33]  38
    x[18]     packing[35]  33
    x[18]     packing[37]  64
    x[18]     packing[39]  170
    x[18]     packing[40]  37
    x[18]     packing[41]  163
    x[18]     packing[42]  94
    x[18]     packing[43]  20
    x[18]     packing[44]  70
    x[18]     packing[45]  96
    x[18]     packing[47]  158
    x[18]     packing[48]  137
    x[18]     R54       1
    x[19]     OBJ       78
    x[19]     packing[0]  66
    x[19]     packing[2]  66
    x[19]     packing[3]  188
    x[19]     packing[4]  18
    x[19]     packing[5]  27
    x[19]     packing[7]  179
    x[19]     packing[8]  197
    x[19]     packing[11]  32
    x[19]     packing[12]  56
    x[19]     packing[14]  53
    x[19]     packing[15]  68
    x[19]     packing[16]  56
    x[19]     packing[17]  179
    x[19]     packing[18]  184
    x[19]     packing[19]  27
    x[19]     packing[21]  140
    x[19]     packing[22]  11
    x[19]     packing[23]  173
    x[19]     packing[24]  174
    x[19]     packing[26]  170
    x[19]     packing[27]  77
    x[19]     packing[28]  162
    x[19]     packing[29]  43
    x[19]     packing[30]  161
    x[19]     packing[31]  20
    x[19]     packing[32]  75
    x[19]     packing[33]  94
    x[19]     packing[34]  44
    x[19]     packing[37]  32
    x[19]     packing[39]  75
    x[19]     packing[40]  69
    x[19]     packing[41]  38
    x[19]     packing[42]  56
    x[19]     packing[44]  158
    x[19]     packing[45]  132
    x[19]     packing[46]  106
    x[19]     packing[47]  169
    x[19]     packing[49]  26
    x[20]     OBJ       169
    x[20]     packing[0]  90
    x[20]     packing[3]  169
    x[20]     packing[4]  102
    x[20]     packing[5]  79
    x[20]     packing[6]  39
    x[20]     packing[7]  88
    x[20]     packing[8]  139
    x[20]     packing[9]  181
    x[20]     packing[10]  115
    x[20]     packing[11]  77
    x[20]     packing[12]  111
    x[20]     packing[13]  185
    x[20]     packing[14]  43
    x[20]     packing[15]  128
    x[20]     packing[18]  92
    x[20]     packing[19]  125
    x[20]     packing[20]  97
    x[20]     packing[21]  16
    x[20]     packing[23]  96
    x[20]     packing[24]  71
    x[20]     packing[25]  107
    x[20]     packing[26]  13
    x[20]     packing[27]  89
    x[20]     packing[28]  184
    x[20]     packing[29]  100
    x[20]     packing[30]  118
    x[20]     packing[32]  175
    x[20]     packing[33]  165
    x[20]     packing[35]  159
    x[20]     packing[36]  3
    x[20]     packing[37]  35
    x[20]     packing[39]  69
    x[20]     packing[40]  80
    x[20]     packing[41]  62
    x[20]     packing[42]  124
    x[20]     packing[43]  85
    x[20]     packing[45]  194
    x[20]     packing[46]  3
    x[20]     packing[47]  79
    x[20]     packing[48]  32
    x[20]     R54       1
    MARKER    'MARKER'                 'INTEND'
RHS
    RHS1      packing[0]  918
    RHS1      packing[1]  626
    RHS1      packing[2]  696
    RHS1      packing[3]  841
    RHS1      packing[4]  687
    RHS1      packing[5]  474
    RHS1      packing[6]  782
    RHS1      packing[7]  882
    RHS1      packing[8]  934
    RHS1      packing[9]  645
    RHS1      packing[10]  623
    RHS1      packing[11]  777
    RHS1      packing[12]  675
    RHS1      packing[13]  580
    RHS1      packing[14]  788
    RHS1      packing[15]  708
    RHS1      packing[16]  731
    RHS1      packing[17]  755
    RHS1      packing[18]  1084
    RHS1      packing[19]  664
    RHS1      packing[20]  722
    RHS1      packing[21]  688
    RHS1      packing[22]  906
    RHS1      packing[23]  921
    RHS1      packing[24]  624
    RHS1      packing[25]  622
    RHS1      packing[26]  693
    RHS1      packing[27]  761
    RHS1      packing[28]  1070
    RHS1      packing[29]  753
    RHS1      packing[30]  866
    RHS1      packing[31]  695
    RHS1      packing[32]  797
    RHS1      packing[33]  574
    RHS1      packing[34]  750
    RHS1      packing[35]  860
    RHS1      packing[36]  734
    RHS1      packing[37]  464
    RHS1      packing[38]  666
    RHS1      packing[39]  972
    RHS1      packing[40]  896
    RHS1      packing[41]  958
    RHS1      packing[42]  723
    RHS1      packing[43]  496
    RHS1      packing[44]  535
    RHS1      packing[45]  1049
    RHS1      packing[46]  651
    RHS1      packing[47]  880
    RHS1      packing[48]  848
    RHS1      packing[49]  997
    RHS1      R54       5
BOUNDS
 BV BND1      x[1]    
 BV BND1      x[2]    
 BV BND1      x[3]    
 BV BND1      x[4]    
 BV BND1      x[5]    
 BV BND1      x[6]    
 BV BND1      x[7]    
 BV BND1      x[8]    
 BV BND1      x[9]    
 BV BND1      x[10]   
 BV BND1      x[11]   
 BV BND1      x[12]   
 BV BND1      x[13]   
 BV BND1      x[14]   
 BV BND1      x[15]   
 BV BND1      x[16]   
 BV BND1      x[17]   
 BV BND1      x[18]   
 BV BND1      x[19]   
 BV BND1      x[20]   
ENDATA
